branch-and-cut/resultados/I080/i080-132.sol
2180
13
3 53
4 68
56 68
65 56
2 65
53 7
56 35
67 35
6 68
3 56
67 5
53 8
1 67
